
m = 10;

n = 10;

Amin = 40;

Amax = 50;

B = 1920;

lambda = 20.00;

c = 
[[4,5,4,10,2,4,10,4,3,2],
[3,4,9,4,5,9,4,2,9,2],
[4,4,6,10,2,8,7,8,5,5],
[6,5,8,6,4,6,8,10,8,10],
[2,10,3,7,3,4,3,5,2,2],
[3,5,4,7,2,2,2,8,7,3],
[9,2,7,7,6,7,2,3,5,7],
[9,3,4,10,8,5,3,10,6,2],
[8,7,5,8,2,3,9,2,7,5],
[4,6,3,7,2,5,10,9,6,4]];
